207,331
1155,481
1028,229
871,596
575,352
956,681
1125,336
548,474
524,-79
663,463
681,646
921,528
385,110
753,458
620,791
654,353
1093,705
830,112
1101,406
625,51
718,643
1108,267
227,637
464,-21
448,173
326,350
300,25
847,919
342,67
196,563
639,140
644,169
735,512
999,724
751,503
